
%FILE DATA:	Soccer Computational Problem for MiniZinc Models	%
%AUTHOR:	Jack Wall	%
%CONTACT:  	116397063@umail.ucc.ie			%
%LAST UPDATE:	03/11/2020, 17:01:54						%
%DESCRIPTION: 	123 games played with 33 games left				%


n=13; %number of teams

%Games to play
games=[|4,5|9,12|3,12|1,12|5,3|10,2|12,6|9,5|1,2|1,11|10,4|2,7|9,8|13,10|11,5|5,10|4,6|10,5|2,6|2,9|12,2|2,13|6,11|11,13|8,1|9,4|11,6|4,3|2,4|9,3|11,10|9,13|5,6|];

%Initial points
iPoints=[32,14,37,18,31,22,34,33,21,16,18,35,17];

%POSITION CONSTRAINTS
% [|teamID, operator, position|...]
% operators index:
%  1 for =  operator
%  2 for >  operator
%  3 for >= operator
%  4 for <  operator
%  5 for <= operator
positionConstraints=[|12,3,1|3,3,2|];